(declare-fun bvlambda_31_ () (_ BitVec 4))
(declare-fun bvlambda_51_ ()Bool         )
(declare-fun bvlambda_54_ ()Bool         )
(declare-fun a164 () (Array (_ BitVec 1) (_ BitVec 5)))
(assert
(let (($e45 (_ bv18 5)))
(let (($e205        a164             ))
(let (($e206 (store $e205 bvlambda_51_ $e45 )))
(let (($e630 (select $e206 true       )))
(let (($e633 (   extract      $e630)))
(let (($e651 (concat bvlambda_31_ true )))
(let (($e652 (store a164 false        $e651)))
(let (($e653 (select $e652 bvlambda_54_)))
(let (($e658 (   extract      $e653)))
                  (= $e658 $e633)
                                                                                                                                                                                                                                                                                                                                                                                                                                                                                                                                                                                                                                                                                                                                                                                                                                                                                                                                                                                                                                                                                                                                                                                                                                                                                                                                                                                                                                                                                                                                               )    )))                 )  )                                                                                                                                                                                                                                                                                                                                                                                                                                       ))                                                                                             )                                            )
